N = 13;
H = 5;
T = 2;

avail = array3d(1..N, 1..H, 1..T, [3, 4, 3, 1, 6, 8, 2, 6, 0, 5, 7, 5, 10, 9, 2, 0, 2, 9, 7, 10, 2, 1, 4, 3, 0, 2, 2, 10, 3, 8, 2, 9, 3, 10, 0, 1, 9, 0, 4, 2, 3, 8, 7, 7, 8, 2, 8, 8, 4, 7, 1, 6, 3, 2, 4, 6, 2, 2, 5, 0, 2, 8, 8, 5, 5, 10, 5, 0, 9, 6, 10, 4, 3, 2, 9, 6, 2, 10, 0, 7, 9, 2, 1, 0, 9, 8, 7, 9, 10, 7, 1, 9, 4, 1, 2, 5, 2, 1, 2, 9, 7, 8, 9, 2, 0, 7, 4, 2, 8, 7, 10, 0, 4, 5, 9, 3, 5, 0, 5, 3, 6, 7, 9, 6, 9, 9, 2, 2, 0, 5]);

r = array2d(1..H, 1..T, [4, 4, 3, 3, 5, 3, 5, 4, 2, 4]);
